NAME: cuum370.tsp
TYPE: TSP
COMMENT: User-generated TSP file
DIMENSION: 370
EDGE_WEIGHT_TYPE: EUC_2D
NODE_COORD_SECTION
1 129.0 180.0
2 362.0 93.0
3 369.0 125.0
4 131.0 119.0
5 187.0 91.0
6 204.0 307.0
7 275.0 166.0
8 345.0 305.0
9 160.0 358.0
10 137.0 7.0
11 151.0 316.0
12 13.0 202.0
13 299.0 314.0
14 192.0 351.0
15 143.0 182.0
16 43.0 204.0
17 367.0 50.0
18 294.0 197.0
19 208.0 370.0
20 314.0 337.0
21 342.0 29.0
22 294.0 166.0
23 158.0 228.0
24 208.0 356.0
25 189.0 74.0
26 260.0 163.0
27 194.0 239.0
28 9.0 215.0
29 23.0 354.0
30 147.0 279.0
31 325.0 237.0
32 323.0 75.0
33 201.0 33.0
34 34.0 44.0
35 241.0 296.0
36 359.0 69.0
37 73.0 280.0
38 241.0 170.0
39 180.0 252.0
40 254.0 334.0
41 217.0 128.0
42 138.0 301.0
43 355.0 64.0
44 41.0 106.0
45 184.0 308.0
46 71.0 347.0
47 33.0 205.0
48 128.0 173.0
49 161.0 346.0
50 117.0 341.0
51 280.0 73.0
52 324.0 73.0
53 313.0 51.0
54 357.0 112.0
55 68.0 244.0
56 273.0 169.0
57 25.0 3.0
58 127.0 232.0
59 320.0 184.0
60 4.0 97.0
61 111.0 312.0
62 186.0 283.0
63 185.0 72.0
64 123.0 287.0
65 338.0 98.0
66 150.0 25.0
67 219.0 16.0
68 129.0 309.0
69 98.0 4.0
70 15.0 343.0
71 96.0 352.0
72 315.0 327.0
73 254.0 68.0
74 189.0 203.0
75 362.0 293.0
76 68.0 235.0
77 318.0 46.0
78 189.0 17.0
79 283.0 262.0
80 216.0 3.0
81 236.0 104.0
82 34.0 303.0
83 102.0 162.0
84 358.0 341.0
85 283.0 34.0
86 362.0 319.0
87 227.0 363.0
88 325.0 73.0
89 336.0 368.0
90 50.0 190.0
91 118.0 284.0
92 187.0 204.0
93 352.0 308.0
94 155.0 313.0
95 199.0 224.0
96 134.0 97.0
97 122.0 324.0
98 334.0 8.0
99 56.0 304.0
100 125.0 93.0
101 284.0 121.0
102 9.0 147.0
103 289.0 56.0
104 362.0 187.0
105 353.0 134.0
106 133.0 292.0
107 237.0 366.0
108 9.0 73.0
109 291.0 110.0
110 128.0 149.0
111 352.0 362.0
112 38.0 309.0
113 181.0 185.0
114 33.0 311.0
115 316.0 122.0
116 297.0 212.0
117 175.0 168.0
118 35.0 78.0
119 88.0 129.0
120 102.0 83.0
121 105.0 161.0
122 221.0 57.0
123 115.0 10.0
124 175.0 32.0
125 336.0 96.0
126 137.0 39.0
127 135.0 248.0
128 36.0 10.0
129 185.0 120.0
130 41.0 295.0
131 310.0 120.0
132 343.0 241.0
133 13.0 317.0
134 105.0 357.0
135 190.0 127.0
136 127.0 176.0
137 208.0 243.0
138 257.0 308.0
139 286.0 77.0
140 339.0 1.0
141 74.0 262.0
142 336.0 321.0
143 172.0 177.0
144 294.0 61.0
145 169.0 44.0
146 212.0 242.0
147 240.0 19.0
148 267.0 300.0
149 26.0 312.0
150 191.0 181.0
151 90.0 82.0
152 198.0 82.0
153 119.0 258.0
154 145.0 249.0
155 202.0 11.0
156 232.0 324.0
157 320.0 303.0
158 126.0 23.0
159 80.0 96.0
160 325.0 346.0
161 12.0 49.0
162 284.0 224.0
163 170.0 48.0
164 111.0 54.0
165 123.0 233.0
166 156.0 223.0
167 331.0 319.0
168 102.0 353.0
169 186.0 20.0
170 104.0 199.0
171 12.0 148.0
172 154.0 294.0
173 138.0 280.0
174 185.0 62.0
175 334.0 350.0
176 321.0 299.0
177 33.0 250.0
178 152.0 215.0
179 115.0 137.0
180 11.0 12.0
181 294.0 353.0
182 242.0 104.0
183 171.0 141.0
184 136.0 114.0
185 132.0 95.0
186 296.0 19.0
187 17.0 188.0
188 362.0 87.0
189 68.0 189.0
190 193.0 326.0
191 132.0 54.0
192 182.0 361.0
193 142.0 361.0
194 305.0 202.0
195 101.0 97.0
196 55.0 210.0
197 184.0 287.0
198 27.0 221.0
199 39.0 204.0
200 284.0 44.0
201 194.0 18.0
202 229.0 8.0
203 50.0 81.0
204 76.0 151.0
205 190.0 292.0
206 38.0 236.0
207 299.0 211.0
208 130.0 26.0
209 223.0 6.0
210 366.0 321.0
211 158.0 35.0
212 22.0 132.0
213 51.0 166.0
214 277.0 352.0
215 54.0 263.0
216 108.0 116.0
217 206.0 9.0
218 106.0 16.0
219 215.0 14.0
220 288.0 281.0
221 276.0 244.0
222 358.0 52.0
223 103.0 117.0
224 134.0 133.0
225 20.0 62.0
226 98.0 152.0
227 1.0 303.0
228 330.0 186.0
229 276.0 282.0
230 306.0 51.0
231 257.0 161.0
232 269.0 228.0
233 48.0 288.0
234 169.0 149.0
235 174.0 133.0
236 33.0 113.0
237 254.0 104.0
238 235.0 313.0
239 46.0 301.0
240 206.0 54.0
241 157.0 5.0
242 178.0 242.0
243 245.0 113.0
244 107.0 347.0
245 327.0 181.0
246 121.0 103.0
247 17.0 192.0
248 48.0 7.0
249 241.0 215.0
250 203.0 235.0
251 340.0 303.0
252 62.0 338.0
253 187.0 27.0
254 226.0 255.0
255 35.0 176.0
256 154.0 32.0
257 228.0 165.0
258 153.0 362.0
259 328.0 141.0
260 64.0 118.0
261 97.0 10.0
262 49.0 297.0
263 240.0 364.0
264 199.0 312.0
265 121.0 246.0
266 369.0 309.0
267 303.0 306.0
268 266.0 251.0
269 3.0 63.0
270 108.0 51.0
271 234.0 237.0
272 239.0 220.0
273 165.0 265.0
274 368.0 36.0
275 259.0 234.0
276 180.0 63.0
277 331.0 349.0
278 325.0 21.0
279 200.0 294.0
280 113.0 38.0
281 313.0 291.0
282 230.0 189.0
283 100.0 190.0
284 139.0 202.0
285 23.0 297.0
286 45.0 122.0
287 224.0 159.0
288 320.0 188.0
289 17.0 47.0
290 176.0 248.0
291 106.0 54.0
292 252.0 144.0
293 158.0 50.0
294 272.0 181.0
295 113.0 265.0
296 120.0 348.0
297 360.0 156.0
298 311.0 55.0
299 337.0 96.0
300 240.0 281.0
301 166.0 84.0
302 142.0 19.0
303 265.0 158.0
304 212.0 338.0
305 130.0 310.0
306 131.0 132.0
307 251.0 159.0
308 23.0 136.0
309 130.0 270.0
310 202.0 253.0
311 234.0 272.0
312 43.0 344.0
313 340.0 336.0
314 362.0 88.0
315 143.0 263.0
316 5.0 123.0
317 271.0 341.0
318 285.0 55.0
319 99.0 12.0
320 337.0 240.0
321 45.0 166.0
322 306.0 35.0
323 4.0 359.0
324 26.0 72.0
325 164.0 320.0
326 17.0 2.0
327 335.0 53.0
328 51.0 156.0
329 88.0 19.0
330 2.0 179.0
331 175.0 173.0
332 36.0 203.0
333 116.0 284.0
334 62.0 31.0
335 62.0 300.0
336 199.0 326.0
337 122.0 117.0
338 214.0 344.0
339 325.0 151.0
340 109.0 23.0
341 97.0 195.0
342 102.0 297.0
343 176.0 254.0
344 18.0 274.0
345 361.0 191.0
346 289.0 108.0
347 243.0 222.0
348 351.0 216.0
349 36.0 164.0
350 69.0 127.0
351 252.0 246.0
352 32.0 91.0
353 191.0 50.0
354 53.0 208.0
355 228.0 360.0
356 243.0 205.0
357 220.0 173.0
358 126.0 132.0
359 183.0 304.0
360 287.0 25.0
361 363.0 101.0
362 224.0 109.0
363 196.0 256.0
364 152.0 304.0
365 168.0 79.0
366 181.0 229.0
367 100.0 233.0
368 78.0 224.0
369 187.0 58.0
370 324.0 239.0
EOF





